###############################################
### LAMMPS Input File for running equilibrium
### and tensile tests of 4IG titin fibril.

# Setup
units       real
atom_style full
dimension        3
boundary     p  p  p

# Style
bond_style harmonic
angle_style charmm
dihedral_style charmm
special_bonds   charmm

pair_style      lj/charmm/coul/charmm 8 12
pair_modify     mix arithmetic
#kspace_style    pppm 1e-6
#special_bonds   dreiding
#kspace_modify   order 4 

# Input Structure
read_data     ig_fibril.data

# Simulation
neighbor    2.0 bin
neigh_modify     delay 0 every 1 check yes
timestep         1.0

# Output
thermo_style     custom step vol temp press density etotal pe ke lx ly lz evdwl ebond eangle edihed ecoul elong
thermo           10000

#Minimize 
#min_style  sd
#minimize   0 0 1000 100000
#min_style  cg
#minimize   0 0 1000 100000

# MD

fix 1 all npt temp 300.0 300.0 100.0 x 1.0 4000.0 1000.0    z  1.0 4000.0 1000.0   couple none
run          1000000
write_data   equi300_p1_10000.data
unfix        1    

fix 1 all npt temp 300.0 300.0 100.0 x 4000.0 1.0 1000.0  z  4000.0 1.0 1000.0  couple none
run          1000000
write_data   equi300_p10000_1.data
unfix        1    

fix          1 all npt temp 300 300 100  aniso 1 1 1000
run          1000000
write_data   equi_300_1_eq.data 
unfix        1  

fix          1 all npt temp 300 300 100  aniso 1 1 1000
run          1000000
write_data   equi_300_2.data 
unfix        1  

fix          1 all npt temp 300 300 100  aniso 1 1 1000
run          1000000
write_data   equi_300_3.data 
unfix        1  

fix          1 all npt temp 300 300 100  aniso 1 1 1000
run          1000000
write_data   equi_300_4.data 
unfix        1  

## MD


fix 5 all npt temp 300.0 300.0 100.0 x 1.0 1.0 1000.0 z 1.0 1.0 1000.0  couple none
dump 1 all atom 10000  pull_out_1.lammpstrj
fix 3 all deform 1 y erate 0.0000001  remap x units box 
compute      1 all pressure thermo_temp
fix          11 all ave/time 1 20 100 c_1[1] c_1[2] c_1[3] c_1[4] c_1[5] c_1[6] file tensile_1.data
timestep    1
thermo      10000
run     3000000
write_data  pull_out_1.data
unfix        11  
unfix 3  
uncompute    1
undump  1
unfix  5 

fix 5 all npt temp 300.0 300.0 100.0 x 1.0 1.0 1000.0 z 1.0 1.0 1000.0  couple none
dump 1 all atom 10000  pull_out_2.lammpstrj
fix 3 all deform 1 y erate 0.00000007692  remap x units box
compute      1 all pressure thermo_temp
fix          11 all ave/time 1 20 100 c_1[1] c_1[2] c_1[3] c_1[4] c_1[5] c_1[6] file tensile_2.data
timestep    1
thermo      10000
run     3000000
write_data  pull_out_2.data
unfix        11   
unfix 3   
uncompute    1
undump  1
unfix  5 

fix 5 all npt temp 300.0 300.0 100.0 x 1.0 1.0 1000.0 z 1.0 1.0 1000.0  couple none
dump 1 all atom 10000  pull_out_3.lammpstrj
fix 3 all deform 1 y erate 0.00000006250  remap x units box
compute      1 all pressure thermo_temp
fix          11 all ave/time 1 20 100 c_1[1] c_1[2] c_1[3] c_1[4] c_1[5] c_1[6] file tensile_3.data
timestep    1
thermo      10000
run     3000000
write_data  pull_out_3.data
unfix        11    
uncompute    1
undump  1
unfix  5 
unfix  3
















